NAME : sim141.121101.tour
COMMENT : Length = 121101
COMMENT : Found by LKH [Keld Helsgaun] Sun Sep 16 05:12:20 2018
TYPE : TOUR
DIMENSION : 141
TOUR_SECTION
1
85
69
72
93
121
31
29
38
16
116
97
98
78
33
102
4
10
14
45
133
39
53
51
92
96
25
26
8
54
44
115
11
18
100
70
74
111
130
138
62
114
86
9
57
20
108
32
55
105
112
13
46
118
106
123
28
6
139
42
66
131
110
107
30
99
35
88
5
127
132
89
63
48
103
22
40
49
34
60
126
47
71
67
27
68
141
2
3
79
37
76
129
104
19
21
81
135
23
109
136
75
58
84
41
15
124
120
122
90
43
94
128
83
50
77
140
91
17
137
113
95
101
56
36
24
61
59
52
73
65
125
117
7
87
134
12
80
64
82
119
-1
EOF
